Total weight: 1424.1
Route 1: 0 2 45 5 8 7 6 46 3 1 4 55 0 
Route 2: 0 12 16 15 11 10 9 13 0 
Route 3: 0 99 14 47 17 53 0 
Route 4: 0 83 19 25 23 21 18 48 49 0 
Route 5: 0 31 29 27 26 28 30 34 93 96 0 
Route 6: 0 92 95 67 62 33 32 50 91 80 0 
Route 7: 0 72 38 39 40 36 35 37 68 0 
Route 8: 0 61 41 42 44 43 70 100 0 
Route 9: 0 84 85 63 76 89 56 0 
Route 10: 0 65 52 86 74 57 0 
Route 11: 0 94 71 54 81 0 
Route 12: 0 69 98 88 78 73 79 60 0 
Route 13: 0 64 51 20 22 24 66 0 
Route 14: 0 82 87 59 75 97 58 77 0 
Route 15: 0 90 0 
